
n_res = 8;
rcap = [72, 59, 68, 69, 868, 912, 895, 798];
rtype = [1, 1, 1, 1, 2, 2, 2, 2];
n_tasks = 50;
modes =  [{1, 2, 3}, {4, 5, 6}, {7, 8, 9}, {10, 11, 12}, {13, 14, 15}, {16, 17, 18}, {19, 20, 21}, {22, 23, 24}, {25, 26, 27}, {28, 29, 30}, {31, 32, 33}, {34, 35, 36}, {37, 38, 39}, {40, 41, 42}, {43, 44, 45}, {46, 47, 48}, {49, 50, 51}, {52, 53, 54}, {55, 56, 57}, {58, 59, 60}, {61, 62, 63}, {64, 65, 66}, {67, 68, 69}, {70, 71, 72}, {73, 74, 75}, {76, 77, 78}, {79, 80, 81}, {82, 83, 84}, {85, 86, 87}, {88, 89, 90}, {91, 92, 93}, {94, 95, 96}, {97, 98, 99}, {100, 101, 102}, {103, 104, 105}, {106, 107, 108}, {109, 110, 111}, {112, 113, 114}, {115, 116, 117}, {118, 119, 120}, {121, 122, 123}, {124, 125, 126}, {127, 128, 129}, {130, 131, 132}, {133, 134, 135}, {136, 137, 138}, {139, 140, 141}, {142, 143, 144}, {145, 146, 147}, {148, 149, 150}];
succ =  [{50, 25, 22, 18, 16, 14, 12, 11}, {25, 15, 14, 13, 10, 8}, {16, 14, 13, 12, 11, 10}, {50, 25, 22, 15, 14, 12}, {27, 18, 14, 11, 10}, {50, 25, 18, 14, 12}, {32, 23, 19, 8}, {50, 30, 27, 26, 24, 22, 21, 20}, {50, 38, 32, 31, 30, 29, 25, 21, 19}, {50, 30, 29, 28, 26, 24, 22, 21}, {39, 36, 32, 31, 30, 29, 26, 23, 20}, {38, 37, 28, 27, 24, 17}, {37, 28, 27, 24, 21, 17}, {38, 32, 30, 29, 21, 19}, {49, 40, 39, 38, 36, 33, 32, 29, 26, 23}, {49, 47, 46, 40, 38, 36, 34, 33, 30, 29}, {45, 39, 36, 33, 32, 31, 26, 23}, {48, 47, 46, 45, 39, 38, 37, 35, 24}, {46, 45, 37, 33, 26, 24}, {49, 48, 47, 44, 38, 37, 34, 33, 28}, {49, 46, 45, 44, 39, 36, 34, 33}, {48, 47, 46, 45, 38, 34, 31}, {48, 46, 41, 35, 34}, {49, 44, 36, 34}, {46, 44, 41, 34}, {48, 47, 43, 42, 41}, {48, 45, 41, 35}, {41, 40, 35}, {44, 37, 35}, {43, 41, 35}, {44, 43, 42}, {47, 43, 41}, {41, 35}, {43, 42}, {42}, {41}, {41}, {41}, {41}, {45}, {}, {}, {}, {}, {}, {}, {}, {}, {}, {}];
n_opt = 150;
dur = [8, 15, 20, 12, 13, 19, 11, 19, 22, 4, 9, 17, 6, 17, 28, 2, 5, 15, 4, 5, 7, 9, 10, 30, 3, 9, 19, 4, 11, 13, 15, 17, 26, 3, 22, 23, 2, 12, 25, 22, 28, 30, 10, 14, 19, 3, 6, 11, 5, 6, 13, 4, 13, 18, 12, 13, 22, 4, 11, 19, 23, 25, 29, 11, 21, 29, 4, 10, 13, 3, 25, 28, 7, 8, 29, 8, 15, 29, 6, 15, 19, 1, 7, 17, 2, 17, 30, 2, 22, 28, 6, 13, 21, 22, 24, 25, 4, 9, 20, 15, 18, 30, 2, 13, 16, 13, 16, 27, 3, 23, 27, 1, 3, 23, 7, 15, 18, 4, 10, 14, 1, 13, 16, 14, 18, 25, 6, 19, 29, 4, 6, 19, 4, 15, 24, 13, 16, 19, 1, 9, 13, 3, 8, 22, 11, 17, 20, 6, 10, 23];
rreq = [|9, 9, 8, 22, 22, 22, 20, 18, 16, 20, 13, 9, 13, 11, 7, 10, 8, 4, 8, 6, 3, 25, 23, 13, 26, 22, 15, 12, 12, 12, 6, 6, 6, 24, 23, 23, 20, 18, 17, 19, 18, 17, 19, 16, 12, 26, 11, 4, 19, 18, 17, 15, 8, 4, 11, 7, 6, 18, 13, 10, 20, 20, 5, 18, 18, 15, 19, 16, 11, 12, 6, 4, 25, 19, 17, 17, 14, 13, 8, 6, 5, 25, 19, 16, 8, 6, 5, 1, 1, 1, 18, 8, 3, 20, 19, 19, 25, 22, 20, 22, 16, 16, 12, 7, 7, 27, 25, 23, 8, 7, 5, 12, 11, 10, 25, 20, 16, 12, 10, 2, 14, 12, 4, 21, 14, 6, 10, 8, 7, 21, 20, 15, 30, 28, 28, 26, 24, 14, 10, 7, 5, 28, 27, 26, 23, 21, 19, 14, 11, 8
 |26, 22, 22, 26, 26, 26, 23, 17, 14, 17, 8, 6, 8, 6, 4, 8, 5, 5, 22, 22, 22, 5, 2, 2, 21, 19, 19, 4, 3, 2, 19, 15, 14, 24, 19, 17, 28, 26, 26, 24, 21, 11, 10, 7, 5, 18, 15, 7, 28, 21, 16, 22, 21, 19, 12, 11, 5, 17, 14, 13, 4, 4, 4, 19, 16, 9, 12, 10, 9, 19, 16, 5, 22, 13, 11, 22, 18, 15, 25, 21, 17, 5, 5, 5, 23, 21, 16, 8, 6, 4, 26, 20, 11, 11, 11, 10, 26, 23, 21, 21, 11, 10, 10, 7, 5, 7, 7, 3, 15, 9, 9, 14, 14, 11, 24, 22, 15, 18, 11, 7, 22, 22, 22, 25, 20, 14, 15, 12, 10, 15, 7, 4, 17, 13, 4, 21, 20, 19, 12, 8, 3, 22, 16, 14, 20, 13, 9, 24, 17, 3
 |17, 17, 10, 24, 17, 8, 18, 9, 5, 16, 15, 14, 27, 27, 27, 21, 16, 16, 22, 15, 13, 20, 16, 11, 21, 17, 15, 25, 22, 19, 24, 17, 8, 14, 9, 6, 23, 20, 16, 28, 28, 26, 17, 15, 14, 14, 12, 6, 28, 28, 28, 7, 5, 5, 25, 17, 14, 25, 21, 13, 16, 13, 8, 7, 6, 4, 28, 18, 12, 13, 13, 13, 23, 22, 13, 18, 10, 9, 5, 4, 3, 16, 15, 14, 14, 10, 4, 25, 24, 24, 26, 14, 8, 11, 10, 9, 27, 25, 23, 26, 25, 23, 27, 23, 23, 20, 18, 9, 29, 27, 26, 28, 12, 4, 21, 12, 8, 18, 17, 15, 21, 18, 10, 18, 17, 12, 7, 5, 1, 16, 12, 9, 23, 14, 7, 28, 25, 22, 27, 20, 12, 19, 16, 11, 10, 7, 6, 25, 24, 21
 |22, 19, 17, 21, 15, 11, 21, 14, 7, 11, 8, 6, 21, 20, 20, 16, 9, 9, 17, 12, 6, 11, 10, 9, 25, 15, 9, 18, 16, 11, 20, 19, 14, 28, 17, 7, 24, 14, 4, 8, 8, 7, 20, 17, 17, 21, 14, 12, 25, 22, 17, 24, 15, 5, 28, 17, 5, 24, 18, 10, 23, 14, 4, 20, 19, 19, 11, 11, 11, 18, 12, 7, 24, 11, 2, 19, 14, 10, 8, 6, 3, 17, 9, 5, 23, 22, 21, 18, 18, 18, 18, 13, 9, 27, 26, 25, 23, 15, 8, 17, 9, 8, 25, 24, 24, 16, 15, 14, 28, 17, 11, 27, 26, 26, 26, 22, 18, 28, 27, 26, 6, 6, 4, 17, 17, 8, 18, 17, 13, 14, 14, 14, 24, 18, 14, 25, 24, 20, 16, 9, 5, 14, 13, 7, 11, 11, 11, 28, 25, 24
 |11, 10, 10, 25, 14, 11, 21, 16, 10, 16, 16, 16, 24, 22, 20, 28, 14, 1, 20, 17, 16, 8, 7, 6, 8, 5, 4, 16, 16, 13, 21, 16, 15, 16, 14, 10, 16, 14, 10, 12, 7, 3, 14, 13, 13, 21, 15, 9, 21, 20, 18, 24, 20, 16, 17, 9, 7, 9, 5, 4, 16, 16, 14, 19, 19, 18, 22, 13, 9, 20, 16, 14, 23, 22, 21, 23, 14, 9, 22, 20, 17, 18, 18, 18, 9, 9, 9, 20, 17, 12, 10, 8, 8, 26, 26, 21, 14, 7, 4, 27, 26, 26, 27, 19, 13, 23, 12, 8, 17, 12, 7, 16, 12, 11, 13, 10, 9, 11, 8, 8, 27, 23, 15, 18, 15, 10, 12, 11, 7, 27, 20, 12, 24, 13, 11, 22, 22, 21, 24, 23, 20, 30, 29, 27, 20, 14, 10, 27, 12, 6
 |6, 6, 6, 18, 15, 14, 29, 29, 29, 5, 4, 2, 20, 17, 15, 12, 10, 9, 20, 19, 11, 29, 27, 24, 23, 15, 14, 20, 20, 20, 23, 13, 9, 9, 7, 5, 18, 18, 12, 20, 16, 4, 21, 11, 8, 17, 13, 12, 25, 23, 17, 28, 26, 21, 1, 1, 1, 28, 22, 13, 30, 30, 30, 22, 22, 21, 30, 27, 27, 23, 14, 7, 28, 28, 28, 23, 19, 7, 8, 4, 3, 17, 15, 15, 25, 25, 21, 25, 19, 16, 25, 21, 13, 8, 7, 3, 26, 12, 8, 19, 14, 7, 26, 26, 24, 28, 28, 26, 22, 21, 19, 19, 15, 14, 16, 15, 13, 16, 14, 12, 26, 25, 24, 21, 16, 8, 27, 17, 9, 10, 10, 10, 8, 8, 6, 18, 18, 18, 16, 15, 15, 25, 18, 15, 21, 14, 10, 9, 9, 9
 |28, 21, 12, 28, 16, 7, 23, 19, 18, 21, 14, 4, 10, 9, 8, 24, 23, 21, 5, 4, 2, 16, 12, 5, 6, 6, 1, 12, 10, 8, 23, 23, 19, 22, 17, 15, 29, 27, 23, 9, 9, 9, 29, 22, 12, 13, 10, 9, 22, 8, 1, 11, 5, 3, 24, 20, 8, 19, 19, 19, 13, 11, 11, 29, 25, 20, 12, 11, 10, 20, 17, 11, 21, 17, 17, 9, 7, 4, 29, 26, 24, 19, 19, 14, 23, 18, 17, 23, 23, 23, 27, 27, 25, 15, 13, 7, 17, 16, 13, 24, 24, 24, 3, 2, 2, 21, 13, 10, 15, 13, 9, 30, 24, 20, 11, 11, 10, 16, 12, 5, 26, 24, 19, 7, 7, 4, 26, 20, 16, 29, 28, 25, 27, 25, 22, 29, 26, 22, 23, 21, 18, 9, 9, 9, 26, 22, 21, 24, 21, 15
 |24, 20, 19, 6, 5, 5, 14, 10, 8, 21, 9, 9, 13, 11, 11, 27, 25, 25, 12, 10, 10, 22, 22, 22, 14, 13, 10, 27, 12, 9, 6, 5, 5, 26, 23, 21, 23, 23, 21, 11, 6, 4, 24, 24, 23, 14, 8, 8, 12, 11, 10, 14, 10, 5, 29, 18, 9, 18, 15, 9, 29, 25, 21, 24, 21, 21, 15, 13, 5, 29, 28, 27, 23, 20, 14, 9, 8, 7, 6, 4, 4, 24, 24, 24, 11, 7, 4, 16, 15, 15, 20, 13, 12, 11, 8, 3, 25, 20, 14, 9, 8, 3, 13, 11, 4, 17, 15, 15, 29, 28, 28, 11, 11, 5, 12, 6, 2, 15, 11, 10, 26, 22, 17, 22, 22, 20, 2, 2, 2, 23, 13, 10, 10, 6, 3, 27, 15, 11, 10, 9, 9, 10, 8, 7, 17, 17, 17, 18, 14, 8|];